PROBLEM NAME: eil51_n17
KNAPSACK DATA TYPE: uncorrelated, similar weights
DIMENSION: 17
NUMBER OF ITEMS: 16
CAPACITY OF KNAPSACK: 873193
MIN SPEED: 0.1
MAX SPEED: 1
RENTING RATIO: 7.29
EDGE_WEIGHT_TYPE: CEIL_2D
NODE_COORD_SECTION	(INDEX, X, Y):
1	52	64
2	40	30
3	17	63
4	17	33
5	13	13
6	42	57
7	8	52
8	43	67
9	58	27
10	38	46
11	46	10
12	32	22
13	59	15
14	5	64
15	39	10
16	32	39
17	48	28
ITEMS SECTION	(INDEX, PROFIT, WEIGHT, ASSIGNED NODE NUMBER):
1	954	100041	8
2	938	100052	3
3	936	100010	14
4	851	100076	7
5	696	100024	4
6	675	100044	5
7	586	100072	12
8	539	100027	15
9	486	100051	11
10	355	100033	13
11	354	100087	9
12	354	100012	17
13	337	100081	2
14	280	100089	16
15	58	100063	10
16	17	100092	6
